param NB_DAYS := 7;
set SCHEDULES := 1 2 3 4 5 6 7 8 9 10;
param required :=
1 45
2 45
3 40
4 50
5 65
6 35
7 35;
param schedule_details : 1 2 3 4 5 6 7 :=
1 1 1 1 1 0 1 0
2 1 1 1 1 0 1 1
3 1 1 1 0 1 1 0
4 1 1 1 0 1 0 1
5 1 1 0 1 1 1 0
6 1 1 0 1 1 0 1
7 1 0 1 1 1 1 0
8 1 0 1 1 1 0 1
9 0 1 1 1 1 1 0
10 0 1 1 1 1 0 1;